342 5
10 10 10 10 10 

0 0 0 0 0 0 5 2 14 26 38 50 
0 0 0 0 0 0 4 3 4 6 7 
8 0 4 0 0 0 2 8 5 
6 0 10 0 0 0 4 12 11 9 173 
3 0 7 0 0 0 3 12 11 10 
6 0 7 0 0 0 2 11 8 
9 0 10 0 0 0 1 8 
6 0 5 0 0 0 1 10 
4 0 10 0 0 0 1 10 
9 0 8 0 0 0 1 13 
10 0 4 0 0 0 1 13 
3 0 10 0 0 0 1 13 
0 0 0 0 0 0 1 62 
0 0 0 0 0 0 6 15 17 18 19 23 24 
10 0 0 0 3 0 1 16 
8 0 0 0 6 0 1 20 
1 0 0 0 8 0 1 22 
5 0 0 0 10 0 1 21 
1 0 0 0 9 0 2 20 231 
4 0 0 0 10 0 1 25 
6 0 0 0 5 0 1 25 
5 0 0 0 9 0 1 25 
2 0 0 0 5 0 1 25 
2 0 0 0 10 0 1 25 
0 0 0 0 0 0 1 62 
0 0 0 0 0 0 4 27 28 29 36 
4 0 1 0 0 0 4 34 33 32 31 
6 0 9 0 0 0 3 35 34 30 
4 0 10 0 0 0 2 33 32 
10 0 5 0 0 0 1 31 
9 0 9 0 0 0 1 37 
2 0 7 0 0 0 1 37 
8 0 10 0 0 0 2 37 257 
7 0 9 0 0 0 1 37 
1 0 8 0 0 0 1 37 
4 0 7 0 0 0 1 37 
0 0 0 0 0 0 1 62 
0 0 0 0 0 0 7 39 41 42 43 46 47 48 
8 0 0 0 0 1 1 40 
2 0 0 0 0 7 2 45 44 
10 0 0 0 0 5 1 44 
9 0 0 0 0 7 1 44 
5 0 0 0 0 7 1 44 
4 0 0 0 0 10 1 49 
4 0 0 0 0 9 1 49 
4 0 0 0 0 10 1 49 
2 0 0 0 0 10 2 49 295 
5 0 0 0 0 9 1 49 
0 0 0 0 0 0 1 62 
0 0 0 0 0 0 4 51 52 54 60 
8 0 1 0 0 0 3 58 55 53 
8 0 6 0 0 0 3 59 57 56 
3 0 6 0 0 0 2 57 56 
4 0 8 0 0 0 2 58 56 
9 0 10 0 0 0 1 56 
10 0 6 0 0 0 1 61 
9 0 10 0 0 0 2 61 247 
10 0 10 0 0 0 1 61 
4 0 8 0 0 0 1 61 
6 0 10 0 0 0 1 61 
0 0 0 0 0 0 1 62 
0 0 0 0 0 0 5 63 95 127 159 171 
0 0 0 0 0 0 6 64 65 66 67 72 93 
3 0 0 2 5 2 4 75 70 69 68 
6 0 0 8 7 10 6 89 88 81 75 74 71 
2 0 0 8 6 6 6 92 87 85 82 81 70 
7 0 0 7 9 9 5 91 88 81 74 71 
9 0 0 5 8 7 4 89 85 82 71 
9 0 0 4 9 5 3 86 76 73 
8 0 0 8 9 3 5 89 88 86 80 77 
3 0 0 9 10 7 2 86 73 
5 0 0 5 5 8 3 90 76 75 
3 0 0 7 9 9 3 87 80 77 
9 0 0 9 10 8 1 77 
4 0 0 10 4 7 2 85 79 
1 0 0 8 6 8 2 85 80 
7 0 0 10 8 4 1 78 
8 0 0 10 4 10 1 79 
9 0 0 7 6 6 1 83 
3 0 0 9 9 9 1 84 
6 0 0 8 9 8 1 83 
10 0 0 3 10 10 1 88 
10 0 0 10 6 6 1 94 
1 0 0 9 6 8 1 94 
5 0 0 8 7 10 1 94 
8 0 0 7 9 10 2 94 251 
6 0 0 7 10 5 1 94 
4 0 0 7 10 10 1 94 
6 0 0 9 10 7 1 94 
5 0 0 10 8 8 1 94 
1 0 0 7 5 10 1 94 
10 0 0 5 6 9 1 94 
9 0 0 9 5 6 1 94 
0 0 0 0 0 0 1 317 
0 0 0 0 0 0 6 96 97 98 99 100 110 
7 0 3 7 6 0 5 114 112 103 102 101 
1 0 7 7 9 0 6 112 109 108 103 101 209 
8 0 9 6 10 0 4 114 108 103 101 
8 0 10 5 8 0 3 113 102 101 
2 0 9 10 6 0 3 114 113 102 
8 0 10 8 10 0 3 107 105 104 
9 0 7 8 10 0 3 109 108 107 
7 0 7 10 7 0 2 113 106 
10 0 5 9 6 0 2 116 111 
1 0 8 10 10 0 2 116 111 
3 0 7 6 8 0 2 116 111 
4 0 10 8 6 0 1 111 
9 0 10 6 10 0 1 111 
2 0 7 6 5 0 1 111 
10 0 10 4 9 0 1 111 
5 0 10 7 10 0 5 125 124 121 117 115 
2 0 5 8 6 0 3 124 119 117 
1 0 7 6 10 0 2 124 115 
7 0 10 5 6 0 2 122 116 
8 0 7 10 8 0 2 123 118 
7 0 6 10 9 0 3 125 124 123 
4 0 6 5 8 0 2 123 120 
1 0 4 6 9 0 1 119 
6 0 5 8 6 0 1 122 
2 0 6 7 5 0 1 122 
9 0 9 8 6 0 1 123 
4 0 6 10 6 0 1 126 
6 0 10 7 4 0 1 126 
8 0 6 9 5 0 1 126 
8 0 9 9 7 0 1 126 
0 0 0 0 0 0 1 317 
0 0 0 0 0 0 7 128 129 130 131 133 157 314 
5 0 5 4 0 3 4 156 138 135 132 
8 0 5 10 0 10 4 140 139 138 132 
5 0 5 6 0 9 4 140 135 134 132 
2 0 8 4 0 6 3 142 138 132 
8 0 10 10 0 4 3 148 144 136 
6 0 7 9 0 8 4 155 154 140 139 
4 0 6 9 0 10 3 153 139 137 
9 0 5 7 0 8 5 152 151 148 147 143 
9 0 9 9 0 6 1 137 
4 0 6 7 0 7 5 154 152 151 147 143 
10 0 9 4 0 8 2 148 141 
7 0 10 8 0 5 3 152 147 145 
8 0 10 9 0 9 3 152 151 143 
8 0 8 5 0 6 1 143 
2 0 8 6 0 9 2 151 146 
5 0 10 6 0 8 1 145 
2 0 6 9 0 5 2 153 150 
3 0 7 7 0 8 1 146 
9 0 10 7 0 6 1 149 
5 0 10 4 0 10 1 150 
4 0 5 10 0 9 1 153 
3 0 5 9 0 6 1 158 
9 0 4 8 0 6 1 158 
2 0 10 6 0 9 1 158 
5 0 6 9 0 7 1 158 
5 0 9 6 0 10 1 158 
9 0 9 10 0 8 1 158 
6 0 8 10 0 8 1 158 
3 0 10 10 0 8 1 158 
3 0 5 7 0 9 1 158 
0 0 0 0 0 0 1 317 
0 0 0 0 0 0 6 160 161 162 163 165 299 
7 0 0 0 1 0 4 169 168 167 166 
3 0 0 0 8 0 3 168 167 166 
9 0 0 0 10 0 2 168 166 
5 0 0 0 6 0 1 164 
8 0 0 0 10 0 1 166 
6 0 0 0 8 0 1 167 
1 0 0 0 8 0 1 170 
8 0 0 0 8 0 1 170 
9 0 0 0 8 0 1 170 
3 0 0 0 8 0 1 170 
0 0 0 0 0 0 4 203 215 237 259 
0 0 0 0 0 0 6 172 173 174 175 177 201 
4 4 3 0 0 2 4 200 182 179 176 
3 8 6 0 0 9 4 185 183 182 176 
3 5 8 0 0 9 4 185 179 178 176 
8 10 6 0 0 7 3 188 182 176 
6 5 6 0 0 10 3 192 187 180 
9 7 8 0 0 8 6 199 198 195 186 185 183 
2 10 8 0 0 9 3 197 183 181 
3 6 8 0 0 6 5 196 195 192 191 186 
7 8 10 0 0 5 2 196 181 
7 10 8 0 0 10 4 198 195 191 186 
8 10 7 0 0 10 2 192 184 
2 7 10 0 0 6 3 196 191 189 
5 7 4 0 0 7 1 186 
3 10 6 0 0 8 2 196 190 
9 6 10 0 0 5 1 189 
3 10 9 0 0 7 2 197 194 
8 6 8 0 0 1 2 195 193 
10 7 9 0 0 9 1 190 
10 8 4 0 0 9 1 193 
10 10 7 0 0 8 1 194 
10 9 8 0 0 9 1 197 
1 10 7 0 0 7 1 202 
7 10 7 0 0 9 1 202 
6 6 6 0 0 8 1 202 
6 5 8 0 0 8 2 202 302 
10 5 7 0 0 6 1 202 
5 10 10 0 0 8 1 202 
4 5 10 0 0 6 1 202 
6 6 8 0 0 10 1 202 
8 5 9 0 0 9 1 202 
0 0 0 0 0 0 1 317 
0 0 0 0 0 0 5 204 206 207 208 210 
7 0 0 0 5 0 1 205 
10 0 0 0 3 0 3 213 212 211 
8 0 0 0 9 0 4 213 212 211 332 
2 0 0 0 6 0 2 212 209 
6 0 0 0 8 0 1 209 
7 0 0 0 10 0 1 211 
9 0 0 0 10 0 1 211 
3 0 0 0 9 0 1 214 
10 0 0 0 8 0 1 214 
7 0 0 0 7 0 1 214 
0 0 0 0 0 0 3 281 293 305 
0 0 0 0 0 0 4 216 217 218 219 
8 0 0 0 4 4 5 228 226 224 223 222 
10 0 0 0 8 9 4 226 222 221 220 
10 0 0 0 3 9 3 226 222 220 
7 0 0 0 10 9 3 224 221 220 
10 0 0 0 10 6 4 229 228 227 225 
10 0 0 0 5 4 4 229 228 227 225 
7 0 0 0 10 7 3 229 227 225 
7 0 0 0 9 10 2 227 225 
4 0 0 0 7 10 4 235 231 230 229 
5 0 0 0 10 9 5 235 234 233 231 230 
10 0 0 0 9 4 5 235 234 233 231 230 
8 0 0 0 3 6 3 234 233 230 
7 0 0 0 8 10 3 235 231 230 
4 0 0 0 9 10 4 234 233 232 286 
4 0 0 0 7 8 1 232 
9 0 0 0 10 5 1 232 
2 0 0 0 10 6 1 236 
7 0 0 0 7 5 1 236 
7 0 0 0 5 9 1 236 
4 0 0 0 6 10 1 236 
0 0 0 0 0 0 1 317 
0 0 0 0 0 0 6 238 240 241 243 245 248 
6 6 0 0 5 0 2 249 239 
10 7 0 0 5 0 3 255 246 242 
9 3 0 0 6 0 2 249 242 
6 10 0 0 10 0 3 256 250 244 
2 7 0 0 8 0 4 256 252 251 247 
6 10 0 0 7 0 3 254 252 249 
1 5 0 0 10 0 2 255 246 
10 10 0 0 3 0 1 246 
1 10 0 0 7 0 3 253 252 251 
1 7 0 0 6 0 3 257 254 253 
1 8 0 0 10 0 2 255 251 
2 8 0 0 7 0 1 250 
6 7 0 0 7 0 1 251 
3 10 0 0 10 0 1 258 
7 5 0 0 10 0 2 258 266 
4 10 0 0 5 0 1 258 
2 6 0 0 8 0 1 258 
5 6 0 0 7 0 1 258 
8 5 0 0 9 0 1 258 
1 10 0 0 10 0 1 258 
0 0 0 0 0 0 1 317 
0 0 0 0 0 0 6 260 262 264 265 268 272 
10 0 1 3 0 0 2 269 261 
8 0 10 10 0 0 3 277 271 263 
2 0 8 10 0 0 2 269 263 
7 0 10 7 0 0 4 279 275 273 267 
5 0 9 7 0 0 3 275 270 266 
2 0 7 6 0 0 3 276 275 269 
9 0 8 10 0 0 3 277 274 271 
8 0 9 8 0 0 3 278 276 274 
5 0 7 9 0 0 2 274 273 
2 0 7 10 0 0 1 270 
10 0 9 7 0 0 1 273 
5 0 8 10 0 0 2 273 283 
1 0 8 10 0 0 1 277 
1 0 7 4 0 0 1 280 
2 0 5 9 0 0 1 280 
6 0 5 5 0 0 1 280 
10 0 10 6 0 0 1 280 
6 0 8 8 0 0 1 280 
5 0 6 7 0 0 1 280 
1 0 8 4 0 0 1 280 
0 0 0 0 0 0 1 317 
0 0 0 0 0 0 5 282 283 284 285 291 
6 0 0 0 0 4 2 289 286 
2 0 0 0 0 7 2 290 289 
10 0 0 0 0 3 1 287 
1 0 0 0 0 10 1 286 
6 0 0 0 0 7 1 288 
9 0 0 0 0 10 1 288 
6 0 0 0 0 6 1 292 
8 0 0 0 0 10 2 292 310 
7 0 0 0 0 10 1 292 
5 0 0 0 0 8 1 292 
0 0 0 0 0 0 1 317 
0 0 0 0 0 0 6 294 295 300 301 302 303 
9 0 0 0 0 3 2 297 296 
9 0 0 0 0 2 3 299 297 311 
7 0 0 0 0 10 1 298 
6 0 0 0 0 10 1 304 
10 0 0 0 0 7 1 304 
6 0 0 0 0 10 1 304 
7 0 0 0 0 6 1 304 
1 0 0 0 0 9 1 304 
3 0 0 0 0 9 1 304 
5 0 0 0 0 9 1 304 
0 0 0 0 0 0 1 317 
0 0 0 0 0 0 6 306 308 309 310 314 315 
8 0 0 0 4 0 2 312 307 
2 0 0 0 10 0 1 311 
10 0 0 0 9 0 1 313 
7 0 0 0 4 0 1 312 
2 0 0 0 5 0 1 311 
5 0 0 0 10 0 1 316 
8 0 0 0 8 0 1 316 
6 0 0 0 7 0 1 316 
9 0 0 0 10 0 2 316 340 
3 0 0 0 8 0 1 316 
0 0 0 0 0 0 1 317 
0 0 0 0 0 0 2 318 330 
0 0 0 0 0 0 5 319 320 321 322 323 
2 0 0 0 0 2 2 328 324 
1 0 0 0 0 10 2 327 324 
3 0 0 0 0 6 2 327 324 
2 0 0 0 0 10 3 326 324 337 
9 0 0 0 0 8 2 326 325 
9 0 0 0 0 10 1 325 
1 0 0 0 0 6 1 329 
5 0 0 0 0 8 1 329 
3 0 0 0 0 8 1 329 
8 0 0 0 0 7 1 329 
0 0 0 0 0 0 1 342 
0 0 0 0 0 0 5 331 332 333 339 340 
7 0 0 0 2 0 4 338 336 335 334 
5 0 0 0 8 0 3 337 336 335 
2 0 0 0 7 0 2 336 335 
1 0 0 0 10 0 1 337 
7 0 0 0 9 0 1 341 
7 0 0 0 8 0 1 341 
4 0 0 0 8 0 1 341 
7 0 0 0 8 0 1 341 
2 0 0 0 7 0 1 341 
10 0 0 0 8 0 1 341 
0 0 0 0 0 0 1 342 
0 0 0 0 0 0 0 
